sat-intances/8.param.solution
language ESSENCE' 1.0
letting actionFrom be [0, 0, 2, 0, 0, 0, 2, 0, 0, 2, 0, 2, 3, 3, 2]
letting actionTo be [2, 2, 1, 2, 2, 2, 3, 2, 2, 1, 2, 1, 2, 2, 1]
letting actionTypes be [1, 1, 2, 1, 1, 1, 4, 1, 1, 2, 1, 2, 3, 5, 2]
letting pointers be [[0, 1, 2, 2, 3, 4, 5, 5, 6, 7, 7, 8, 8, 8, 8, 8;int(0..15)], 
[0, 0, 0, 1, 1, 1, 1, 1, 1, 1, 2, 2, 3, 3, 3, 4;int(0..15)];int(0..1)]
letting statePlaces be [[-1, 8, 8, 8, 5, 3, 6, 6, 4, 4, 4, 70, 70, 6, 12, 12;int(0..15)], 
[-1, -1, -1, -1, -1, -1, -1, 6, 6, 6, 6, 6, 6, 6, 6, 6;int(0..15)];int(2..3)]
